qe/outputs/qe/qe_queries_wdomain/T=5,eliminate=[I_0,I_1,I_2,I_3,I_4,L_1,L_2,L_3,L_4,C,B].smt2
; benchmark generated from python API
(set-info :status unknown)
(declare-fun S_1 () Real)
(declare-fun S_2 () Real)
(declare-fun L_0 () Real)
(declare-fun S_3 () Real)
(declare-fun A_3 () Real)
(declare-fun A_2 () Real)
(declare-fun A_1 () Real)
(declare-fun S_4 () Real)
(declare-fun S_0 () Real)
(declare-fun A_0 () Real)
(declare-fun A_4 () Real)
(assert
 (let ((?x828 (* (- 1.0) A_1)))
 (let ((?x1367 (* (- (/ 1.0 2.0)) L_0)))
 (let ((?x1384 (* (/ 1.0 2.0) A_0)))
 (let ((?x3687 (* (/ 1.0 2.0) A_2)))
 (let ((?x1451 (* (- (/ 1.0 2.0)) S_4)))
 (let ((?x5752 (* (/ 1.0 2.0) A_3)))
 (let ((?x16470 (+ ?x5752 ?x1451 ?x3687 ?x1384 ?x1367 ?x828)))
 (let (($x12157 (<= (+ (* (- (/ 1.0 2.0)) A_1) ?x1451 S_2 (* (/ 1.0 2.0) L_0)) 0.0)))
 (let (($x4448 (not (<= (+ S_4 (* (- 1.0) S_0) A_0 (* (- 1.0) A_3)) 0.0))))
 (let (($x3928 (not (<= (+ A_2 S_4 (* (- 1.0) S_2) (* (- 1.0) A_3)) 0.0))))
 (let (($x2683 (<= (+ A_3 (* (- 1.0) S_4) (* (- 1.0) L_0)) 0.0)))
 (let ((?x4266 (* 2.0 S_1)))
 (let ((?x926 (* (- 1.0) A_0)))
 (let ((?x1534 (* (- 1.0) S_4)))
 (let (($x59506 (not (<= 0.0 (+ A_2 ?x1534 ?x926 L_0 ?x4266 ?x828)))))
 (let (($x59266 (<= 0.0 (+ A_2 A_0 (* (- 1.0) L_0) (* (- 1.0) S_1) ?x828))))
 (let (($x55518 (<= 0.0 (+ S_0 L_0 ?x926))))
 (let (($x53828 (not $x55518)))
 (let (($x4280 (<= (+ ?x1534 S_0 ?x926 A_3) 0.0)))
 (let (($x4267 (not (<= (+ S_4 A_1 (* (- 1.0) S_1) (* (- 1.0) A_3)) 0.0))))
 (let (($x102323 (or (<= (+ A_2 ?x1534 A_1 (* (- 1.0) L_0) ?x926) 0.0) $x4267 $x4280 $x53828 $x59266 $x59506)))
 (let ((?x2688 (* (- (/ 1.0 2.0)) A_4)))
 (let ((?x5714 (* (- (/ 1.0 2.0)) A_1)))
 (let ((?x1360 (* (- 1.0) S_3)))
 (let ((?x1432 (* (/ 1.0 2.0) S_4)))
 (let (($x8356 (<= (+ ?x3687 ?x1432 ?x1360 ?x1384 ?x1367 ?x5714 ?x5752 ?x2688) 0.0)))
 (let ((?x837 (* (- 1.0) A_2)))
 (let ((?x1111 (+ A_1 ?x837)))
 (let (($x1875 (<= ?x1111 (- 5.0))))
 (let (($x1777 (<= (+ A_2 ?x1360 (* (- 1.0) L_0)) 0.0)))
 (let (($x60967 (<= (+ (* (- (/ 1.0 3.0)) S_4) (* (/ 1.0 3.0) A_0) (* (- (/ 1.0 3.0)) L_0)) (- 5.0))))
 (let (($x60935 (not (<= (- 10.0) (+ A_2 ?x1534 A_0 (* (- 1.0) L_0) ?x828)))))
 (let ((?x2459 (* (- (/ 1.0 2.0)) A_2)))
 (let ((?x1452 (* (- (/ 1.0 2.0)) A_0)))
 (let ((?x4841 (* (/ 1.0 2.0) S_0)))
 (let ((?x5761 (* (/ 1.0 2.0) A_1)))
 (let (($x60600 (not (<= (- (/ 5.0 2.0)) (+ ?x5752 ?x1451 ?x5761 ?x4841 ?x1452 ?x2459)))))
 (let (($x60288 (not (<= (- 5.0) (+ A_3 ?x1534 A_0 (* (- 1.0) L_0) ?x828)))))
 (let (($x60247 (not (<= (- 5.0) (+ A_2 ?x1534 S_0 ?x926)))))
 (let (($x58982 (not (<= (- 10.0) (+ A_1 ?x1534 S_0 ?x926)))))
 (let (($x12185 (<= (+ ?x5761 ?x1451 ?x1367) (- 5.0))))
 (let (($x2091 (<= (+ A_2 ?x1534 (* (- 1.0) L_0)) (- 5.0))))
 (let (($x67721 (or $x2091 $x4280 $x12185 $x58982 $x60247 $x60288 $x60600 $x60935 $x60967 (not (<= (+ (* (- 1.0) A_3) S_4 A_2 ?x926 L_0) 10.0)))))
 (let (($x56648 (not (<= 0.0 (+ A_2 ?x1360 S_0 ?x926)))))
 (let (($x13144 (<= (+ ?x1384 (* (- (/ 1.0 2.0)) S_3) ?x1367) (- 5.0))))
 (let ((?x6163 (* (- (/ 3.0 2.0)) S_3)))
 (let ((?x6214 (+ A_1 ?x1432 ?x6163 S_0 ?x926)))
 (let (($x6215 (<= ?x6214 0.0)))
 (let (($x1327 (<= (+ ?x1432 ?x1384 ?x1367 ?x1360) 0.0)))
 (let (($x647 (not (<= 0.0 (+ A_1 (* (- 1.0) S_2) S_0 ?x926)))))
 (let (($x22609 (<= (+ ?x5761 ?x1432 ?x2688 ?x1360 ?x4841 ?x1452 ?x5752) 0.0)))
 (let (($x1491 (<= (+ A_1 (* (- 1.0) S_2) (* (- 1.0) L_0)) 0.0)))
 (let ((?x1448 (* (- 1.0) S_2)))
 (let ((?x1447 (* (- (/ 3.0 4.0)) L_0)))
 (let ((?x1446 (* (/ 3.0 4.0) A_0)))
 (let ((?x1445 (* (/ 1.0 4.0) S_4)))
 (let (($x1450 (<= (+ ?x1445 ?x1446 ?x1447 ?x1448) 0.0)))
 (let (($x56022 (not (<= 0.0 (+ (* (- (/ 1.0 2.0)) A_3) ?x1432 A_2 ?x1360 ?x1384 ?x1367 ?x5714)))))
 (let (($x6593 (<= (+ A_1 ?x1360 (* (- 1.0) L_0)) (- 5.0))))
 (let (($x5729 (<= (+ (* (- (/ 1.0 2.0)) A_3) ?x1432 ?x5761 ?x1360 ?x4841 ?x1452 ?x3687) 0.0)))
 (let (($x51871 (not (<= (- 5.0) (+ A_2 ?x1360 A_0 (* (- 1.0) L_0) ?x828)))))
 (let (($x48440 (not (<= (- 5.0) (+ A_1 ?x1360 S_0 ?x926)))))
 (let (($x13190 (<= (+ (* (- 1.0) A_3) S_4 ?x1384 (* (- (/ 1.0 2.0)) S_3) (* (/ 1.0 2.0) L_0)) 0.0)))
 (let (($x3791 (<= (+ (* (- 1.0) A_3) S_4 A_2 ?x1360 A_0 ?x1448 (* (- 1.0) L_0)) 0.0)))
 (let (($x7897 (<= (+ (* (/ 2.0 3.0) A_1) (* (/ 1.0 3.0) S_4) ?x1360 (* (- (/ 2.0 3.0)) L_0)) 0.0)))
 (let (($x2237 (<= (+ (* (- 1.0) A_3) S_4 A_1 ?x1360) 0.0)))
 (let (($x13176 (<= (+ ?x1452 (* (- (/ 1.0 2.0)) S_3) (* (/ 1.0 2.0) L_0) S_1) 0.0)))
 (let (($x58888 (<= (+ ?x1534 S_2) (- 5.0))))
 (let (($x3976 (<= (+ A_3 ?x1534 ?x828 S_1) 0.0)))
 (let (($x100526 (or $x3976 (<= (+ A_2 ?x1534 ?x828 S_1) (- 5.0)) (not (<= (- 5.0) (+ A_3 ?x1534 S_1 ?x837))) (<= (+ ?x1451 (* (/ 1.0 2.0) S_1)) (- 5.0)))))
 (let (($x63435 (or $x4448 $x55518 $x58982 (<= (+ ?x5752 ?x1451 ?x2459 ?x1384 ?x1367) (- 5.0)) $x60247 $x60288 $x60600 $x60935 $x60967)))
 (let (($x13256 (<= (+ (* (- (/ 2.0 3.0)) S_4) (* (- (/ 1.0 3.0)) A_0) S_2 (* (/ 1.0 3.0) L_0)) 0.0)))
 (let (($x28704 (<= (+ ?x3687 ?x1432 ?x2688 ?x1360 (* (- (/ 1.0 2.0)) S_2) ?x1367 ?x4841 ?x5752) 0.0)))
 (let (($x2203 (<= (+ S_4 (* (- 1.0) A_4) A_1 ?x1448) 0.0)))
 (let (($x100327 (or $x3976 $x55518 (not (<= 0.0 (+ A_1 (* (- 1.0) S_1) S_0 ?x926))) $x59266 $x59506)))
 (let (($x50937 (not (<= 0.0 (+ A_2 ?x1432 ?x6163 A_0 (* (- 1.0) L_0) ?x828)))))
 (let ((?x10549 (+ (* (/ 2.0 5.0) A_1) (* (/ 3.0 5.0) S_4) (* (- (/ 2.0 5.0)) A_4) ?x1360 (* (/ 2.0 5.0) S_0) (* (- (/ 2.0 5.0)) A_0) (* (/ 2.0 5.0) A_2))))
 (let (($x3638 (<= (+ S_4 A_2 ?x1360 (* (- 1.0) A_4)) 0.0)))
 (let (($x2789 (<= (+ A_0 ?x1448 (* (- 1.0) L_0)) (- 5.0))))
 (let (($x2168 (<= (+ ?x1360 S_0 ?x926 A_2) 0.0)))
 (let (($x11655 (<= (+ S_4 (* (- 1.0) A_4) A_1 ?x1360 ?x1448 S_0 ?x926 A_2) 0.0)))
 (let (($x2709 (<= (+ (* (- 1.0) A_3) S_4 A_0 ?x1448) 0.0)))
 (let (($x18738 (<= (+ (* (- (/ 1.0 3.0)) S_4) (* (- (/ 2.0 3.0)) A_0) (* (/ 2.0 3.0) L_0) S_1) 0.0)))
 (let ((?x3458 (* (- 2.0) S_1)))
 (let ((?x816 (* (- 1.0) L_0)))
 (let ((?x846 (* (- 1.0) A_3)))
 (let (($x12522 (not (<= (+ ?x846 S_4 A_2 A_0 ?x816 ?x3458) 0.0))))
 (let (($x71642 (or $x2683 (not (<= (+ A_3 ?x837 A_0 ?x816 (* (- 1.0) S_1)) 0.0)) $x4267 $x4448 $x12522 $x18738)))
 (let ((?x1108 (+ A_2 ?x846)))
 (let (($x3026 (<= ?x1108 (- 5.0))))
 (let (($x14164 (<= (+ (* (/ 2.0 3.0) A_0) (* (- (/ 2.0 3.0)) L_0) (* (/ 1.0 3.0) S_3) ?x1448) 0.0)))
 (let (($x4299 (<= (+ A_2 ?x1534 ?x828 ?x4266 L_0 ?x926) 0.0)))
 (let (($x64377 (or $x3976 $x4299 (<= (+ ?x5752 ?x1451 ?x2459 ?x1452 (* (/ 1.0 2.0) L_0) S_1) 0.0) $x18738)))
 (let (($x2839 (<= (+ ?x837 S_3 A_0 ?x1448) 0.0)))
 (let (($x2543 (<= (+ ?x846 S_3 A_1 ?x1448) 0.0)))
 (let (($x6196 (<= (+ A_1 (* (/ 3.0 2.0) S_4) ?x6163 (* (- 1.0) A_4)) 0.0)))
 (let (($x2766 (<= (+ ?x3687 ?x846 (* (/ 1.0 2.0) A_4)) 0.0)))
 (let (($x33036 (or $x1327 $x2766 (<= (+ ?x1432 (* (- (/ 1.0 2.0)) S_3) (* (- 1.0) A_4) A_3) 0.0) $x6196)))
 (let (($x3605 (not $x2766)))
 (let (($x33037 (or $x1327 $x3605 $x6196 (<= (+ ?x1432 (* (- (/ 1.0 2.0)) S_3) A_2 ?x846) 0.0))))
 (let (($x66751 (or $x3638 $x6593 $x13144 (<= (+ ?x5761 ?x1432 ?x2688 ?x1360 ?x4841 ?x1452 ?x3687) (- (/ 5.0 2.0))))))
 (let (($x4121 (<= (+ A_2 ?x1360 ?x828 S_1) 0.0)))
 (let (($x2452 (<= (+ A_3 ?x1534 ?x837 S_2) 0.0)))
 (let (($x8479 (<= (+ S_4 ?x1360 (* 2.0 A_0) (* (- 2.0) S_2) (* (- 2.0) L_0)) 0.0)))
 (let (($x2832 (<= (+ ?x837 S_4 (* 2.0 A_0) (* (- 2.0) S_2) ?x816) 0.0)))
 (let (($x41 (>= A_1 A_0)))
 (let (($x42 (>= A_2 A_1)))
 (let (($x43 (>= A_3 A_2)))
 (let (($x44 (>= A_4 A_3)))
 (and $x44 $x43 $x42 $x41 (or $x1450 $x2543) (or $x647 $x1450 $x1491) (or $x647 $x1491 $x2832) (or $x647 $x1491 $x2709) (or $x1450 $x2203) (or $x2203 $x2832) (or $x2203 $x2709) (or $x1450 $x1491 $x2168 $x5729) (or $x647 $x1491 $x2789) (or $x2543 $x2709) (or $x2543 $x2789) (or $x2543 $x2832) (or $x4121 (<= (+ ?x1432 ?x6163 S_1) 0.0)) (or $x1327 $x2168 $x6215 $x8356) (or $x1327 $x2237 $x3638) (or $x2203 $x2789) (or $x2203 $x8479) (or $x647 $x1491 $x8479) (or $x2237 $x2709 $x55518 $x56648) (or $x2237 $x2709 $x4121) (or $x647 $x1491 $x14164) (or $x4121 $x13176) (or $x2452 $x13256) (or $x2452 $x12157) (or $x2452 (<= (+ ?x1534 ?x926 S_2 L_0 S_1) 0.0)) (or $x3638 $x13176) (or $x4121 (<= (+ ?x1360 S_1) (- 5.0))) (or $x2203 $x14164) (or $x647 $x1491 $x2839) (or $x1491 $x2168 $x2709 $x5729) (or $x2237 $x3638 $x13144) (or $x2237 $x3638 $x13190) (or $x2203 $x3791 $x13190) (or $x1327 $x2237 $x4121) (or $x1450 $x2237 $x3638) (or $x1450 $x1491 $x11655) (or $x1491 $x2789 $x11655) (or $x2203 $x3791 $x13176) (or $x2543 $x3791 $x13144) (or $x2543 $x3791 $x13176) $x66751 $x33037 $x33036 (or $x1327 $x3638 $x6196) (or $x2452 $x58888) (or $x2203 $x2839) (or $x2543 $x2839) (or $x2543 $x14164) (or $x2168 (not (<= 0.0 (+ A_2 ?x1360 S_1 ?x828))) $x59266) (or $x647 $x1777 $x8356 $x13176) (or $x3928 $x3976 $x13256) $x64377 (or $x1491 $x11655 $x14164) (or $x2683 $x3026 $x4448 (not (<= (+ A_2 ?x828) 5.0)) $x60288) (or $x647 $x1491 $x3791 $x13176) (or $x3976 $x4299 $x12522 $x18738) $x71642 (or $x1327 $x2543) (or $x1491 $x2168 $x2789 $x22609) (or $x1450 $x1491 $x2168 $x22609) (or $x1327 $x4121 $x7897 $x22609) (or $x1327 $x2203 $x3791) (or $x1327 $x3638 $x7897 $x22609) (or $x2203 $x3791 $x13144) (or $x2237 $x4121 $x13144) (or $x2237 $x2789 $x4121) (or $x3638 $x13144 (<= (+ S_4 (* (- 1.0) A_4) A_1 ?x1360) (- 5.0))) (or $x2237 $x2709 $x3638) (or $x4121 $x6593 $x13144 $x22609) (or $x1491 $x2789 $x4121 $x22609) (or $x2237 $x4121 $x13190) (or $x2543 $x3791 $x13190) (or $x6593 $x13144 $x22609 $x51871 $x55518 $x56648) (or $x1450 $x1491 $x4121 $x22609) (or $x3638 $x6593 $x13144 $x22609) (or $x1450 $x1491 $x3638 $x22609) (or $x1491 $x2709 $x11655) (or $x1491 $x2168 $x2789 $x5729) (or $x1327 $x1777 $x2203 $x8356 $x28704) (or $x1491 $x2789 $x3638 $x22609) (or $x2237 $x2789 $x3638) (or $x1327 $x3638 $x7897 (<= ?x10549 0.0)) (or $x1777 $x2203 $x8356 $x13144 $x28704) (or $x1327 $x5729 $x7897 (<= 0.0 ?x6214) $x56648) (or $x1327 $x1777 $x2237 $x56022 $x56648) (or $x2168 $x6593 $x13144 $x48440 $x51871) (or $x1327 $x1777 $x6215 $x50937 $x53828) (or $x1327 $x50937 (not (<= 0.0 ?x6214)) $x55518 $x56648) (or $x1491 $x2789 $x22609 $x56648) (or (not (<= 0.0 (+ A_2 ?x1360 S_1 ?x828))) $x55518 $x56648 $x59266) $x100327 (or $x1777 $x2203 $x8356 $x13176 $x28704) (or $x1777 $x2237 $x13190 $x56022 $x56648) (or $x1777 $x8356 $x13176 $x56648) (or $x2683 $x3928 $x4448 $x13256 (not (<= 0.0 ?x16470))) $x63435 $x100526 (or $x3928 $x3976 $x12157) (or $x1777 $x2237 $x2789 $x56648) (or $x1450 $x2237 $x4121) (or $x3928 $x3976 $x58888) (or $x1777 $x1875 $x13144 $x56022 $x56648) (or $x1777 $x13176 $x56022 $x56648) (or $x1450 $x1491 $x2237 $x56648) (or $x647 $x1491 $x3791 $x13144) (or $x647 $x1327 $x1491 $x3791) (or $x1327 $x7897 $x8356 $x22609 $x55518 $x56648) (or $x647 $x1491 $x3791 $x13190) (or $x13144 $x48440 $x51871 $x55518 $x56648) (or $x1777 $x5729 $x6593 $x13144 $x56022 $x56648) (or $x1450 $x1491 $x22609 $x56648) (or $x647 $x1777 $x1875 $x8356 $x13144) (or $x647 $x1327 $x1777 $x6215 $x8356) (or $x2683 $x3928 $x4448 $x58888 $x60288) (or $x1875 $x8356 $x13144 $x55518 $x56648) $x67721 (or $x1777 $x1875 $x8356 $x53828 (<= (+ ?x1384 ?x1367 (* (- (/ 1.0 2.0)) S_3)) (- 5.0))) $x102323 (or $x2683 $x3928 $x4448 $x12157 (<= ?x16470 0.0)) (<= (+ S_4 L_0 (* (- 1.0) A_4)) 0.0) (<= (+ ?x926 L_0 S_0) 0.0) (<= (+ (* (- 1.0) S_1) S_0) 0.0) (<= (+ ?x1534 S_3) 0.0) (<= (+ ?x1360 S_2) 0.0) (<= (+ ?x828 S_1 L_0) 0.0) (<= (+ ?x837 S_2 L_0) 0.0) (<= (+ ?x846 S_3 L_0) 0.0) (<= (+ ?x1448 S_1) 0.0))))))))))))))))))))))))))))))))))))))))))))))))))))))))))))))))))))))))))))))))))))))))))))))))))))))))))))))))
(check-sat)
